(set-logic QF_S)
(declare-fun var0 () String)
(assert (str.in.re var0 (re.++ (re.+ (re.union (str.to.re "0") (str.to.re "1"))) (re.++ (re.+ (re.* (str.to.re "2"))) (re.++ (re.union (re.* (str.to.re "33")) (re.* (str.to.re "44"))) (re.++ (re.+ (re.+ (str.to.re "555"))) (re.++ (re.* (re.* (str.to.re "6"))) (re.++ (re.* (re.* (str.to.re "777"))) (re.++ (re.union (re.union (str.to.re "888") (str.to.re "999")) (re.union (str.to.re "aa") (str.to.re "bb"))) (re.++ (re.+ (re.+ (str.to.re "cc"))) (re.++ (re.* (re.union (str.to.re "ddd") (str.to.re "ee"))) (re.++ (re.+ (re.+ (str.to.re "f"))) (re.++ (re.* (re.* (str.to.re "gg"))) (re.++ (re.union (re.union (str.to.re "h") (str.to.re "i")) (re.union (str.to.re "jjj") (str.to.re "kk"))) (re.++ (re.+ (re.union (str.to.re "lll") (str.to.re "mm"))) (re.++ (re.+ (re.* (str.to.re "nn"))) (re.++ (re.union (re.* (str.to.re "ooo")) (re.* (str.to.re "pp"))) (re.++ (re.+ (re.union (str.to.re "q") (str.to.re "r"))) (re.++ (re.+ (re.+ (str.to.re "ss"))) (re.++ (re.union (re.union (str.to.re "t") (str.to.re "u")) (re.union (str.to.re "v") (str.to.re "ww"))) (re.++ (re.+ (re.union (str.to.re "xx") (str.to.re "yyy"))) (re.++ (re.union (re.union (str.to.re "zz") (str.to.re "AA")) (re.union (str.to.re "BBB") (str.to.re "C"))) (re.++ (re.union (re.union (str.to.re "D") (str.to.re "E")) (re.union (str.to.re "FFF") (str.to.re "G"))) (re.++ (re.+ (re.union (str.to.re "HHH") (str.to.re "III"))) (re.++ (re.+ (re.union (str.to.re "J") (str.to.re "KK"))) (re.++ (re.union (re.+ (str.to.re "L")) (re.+ (str.to.re "M"))) (re.++ (re.union (re.* (str.to.re "NNN")) (re.* (str.to.re "O"))) (re.++ (re.* (re.+ (str.to.re "PP"))) (re.++ (re.union (re.+ (str.to.re "QQQ")) (re.+ (str.to.re "RRR"))) (re.++ (re.union (re.+ (str.to.re "S")) (re.+ (str.to.re "TTT"))) (re.++ (re.+ (re.* (str.to.re "UUU"))) (re.++ (re.+ (re.union (str.to.re "V") (str.to.re "W"))) (re.++ (re.* (re.+ (str.to.re "XXX"))) (re.++ (re.union (re.union (str.to.re "YYY") (str.to.re "ZZZ")) (re.union (str.to.re "!!!") (str.to.re """"""))) (re.* (re.union (str.to.re "##") (str.to.re "$")))))))))))))))))))))))))))))))))))))
(check-sat)